RT is False
Default write of storage_offers_DA.csv just to have a file (but constraint should be inactive)
Reading model...
...model read.
creating competitive generators file...
...competitive generators recorded.
Loading data...
.. day-ahead data with real-time VRE data read.
Compiling instance...
...instance created.
Creating Offer Mitigation (model will solve as dispatch if TRUE)...
NOTE: storage offers will not be mitigated
...storage offer mitigation file created
Converting model to MPEC...
...converted
NOTE: initial MIP solve with only storage competitive to get feasible solution
Solving...

Welcome to IBM(R) ILOG(R) CPLEX(R) Interactive Optimizer 12.9.0.0
  with Simplex, Mixed Integer & Barrier Optimizers
5725-A06 5725-A29 5724-Y48 5724-Y49 5724-Y54 5724-Y55 5655-Y21
Copyright IBM Corp. 1988, 2019.  All Rights Reserved.

Type 'help' for a list of available commands.
Type 'help' followed by a command name for more
information on commands.

CPLEX> Logfile 'cplex.log' closed.
Logfile 'C:\Users\llavin\Desktop\test919\logs\tmpf60y9d7p.cplex.log' open.
CPLEX> New value for parallel optimization mode: -1
CPLEX> New value for mixed integer optimality gap tolerance: 0.01
CPLEX> New value for integrality tolerance: 1e-09
CPLEX> New value for feasibility tolerance: 0.1
CPLEX> New value for deterministic time limit in ticks: 100000
CPLEX> Problem 'C:\Users\llavin\Desktop\test919\logs\tmpl9dstjeo.pyomo.lp' read.
Read time = 0.22 sec. (13.86 ticks)
CPLEX> Problem name         : C:\Users\llavin\Desktop\test919\logs\tmpl9dstjeo.pyomo.lp
Objective sense      : Maximize
Variables            :   53321  [Nneg: 1,  Box: 21806,  Free: 4416,
                                 Binary: 27098]
Objective nonzeros   :    9029
Linear constraints   :  122164  [Less: 40983,  Greater: 58612,  Equal: 22569]
  Nonzeros           :  288457
  RHS nonzeros       :   66982

Variables            : Min LB: -5000.000        Max UB: 1000000.       
Objective nonzeros   : Min   : 0.2250000        Max   : 90000.00       
Linear constraints   :
  Nonzeros           : Min   : 0.2250000        Max   : 2910000.       
  RHS nonzeros       : Min   : 0.2250000        Max   : 3000000.       
CPLEX> CPXPARAM_Parallel                                -1
CPXPARAM_Simplex_Tolerances_Feasibility          0.10000000000000001
CPXPARAM_DetTimeLimit                            100000
CPXPARAM_MIP_Tolerances_MIPGap                   0.01
CPXPARAM_MIP_Tolerances_Integrality              1.0000000000000001e-09
Tried aggregator 3 times.
MIP Presolve eliminated 88102 rows and 18982 columns.
MIP Presolve added 3349 rows and 0 columns.
MIP Presolve modified 23618 coefficients.
Aggregator did 12842 substitutions.
Reduced MIP has 24569 rows, 20941 columns, and 68800 nonzeros.
Reduced MIP has 8293 binaries, 0 generals, 0 SOSs, and 0 indicators.
Presolve time = 0.28 sec. (172.95 ticks)
Probing fixed 431 vars, tightened 2912 bounds.
Probing time = 1.22 sec. (903.52 ticks)
Tried aggregator 2 times.
MIP Presolve eliminated 965 rows and 870 columns.
MIP Presolve modified 2211 coefficients.
Aggregator did 58 substitutions.
Reduced MIP has 23546 rows, 20013 columns, and 65811 nonzeros.
Reduced MIP has 7859 binaries, 0 generals, 0 SOSs, and 0 indicators.
Presolve time = 0.09 sec. (66.14 ticks)
Probing fixed 4 vars, tightened 10 bounds.
Probing time = 0.19 sec. (113.49 ticks)
Clique table members: 8268.
MIP emphasis: balance optimality and feasibility.
MIP search method: dynamic search.
Parallel mode: opportunistic, using up to 32 threads.
Root relaxation solution time = 0.34 sec. (427.75 ticks)

        Nodes                                         Cuts/
   Node  Left     Objective  IInf  Best Integer    Best Bound    ItCnt     Gap

      0     0        0.0000   623                      0.0000     3178         
*     0+    0                            0.0000        0.0000             0.00%
      0     0        cutoff              0.0000        0.0000     3178    0.00%
Elapsed time = 3.98 sec. (3062.91 ticks, tree = 0.01 MB, solutions = 1)

Root node processing (before b&c):
  Real time             =    4.00 sec. (3064.83 ticks)
Parallel b&c, 32 threads:
  Real time             =    0.00 sec. (0.00 ticks)
  Sync time (average)   =    0.00 sec.
  Wait time (average)   =    0.00 sec.
                          ------------
Total (root+branch&cut) =    4.00 sec. (3064.83 ticks)

Solution pool: 1 solution saved.

MIP - Integer optimal solution:  Objective =  6.9758243626e-10
Solution time =    4.03 sec.  Iterations = 3178  Nodes = 0
Deterministic time = 3064.98 ticks  (760.16 ticks/sec)

CPLEX> Incumbent solution written to file 'C:\Users\llavin\Desktop\test919\logs\tmpiodjucx4.cplex.sol'.
CPLEX> NOTE: no warmstart specified for MIP iteration, default behavior is true
NOTE: resolving with all competitive generators using storage-only solution to warmstart
Solving...

Welcome to IBM(R) ILOG(R) CPLEX(R) Interactive Optimizer 12.9.0.0
  with Simplex, Mixed Integer & Barrier Optimizers
5725-A06 5725-A29 5724-Y48 5724-Y49 5724-Y54 5724-Y55 5655-Y21
Copyright IBM Corp. 1988, 2019.  All Rights Reserved.

Type 'help' for a list of available commands.
Type 'help' followed by a command name for more
information on commands.

CPLEX> Logfile 'cplex.log' closed.
Logfile 'C:\Users\llavin\Desktop\test919\logs\tmp2og_mqln.cplex.log' open.
CPLEX> New value for parallel optimization mode: -1
CPLEX> New value for mixed integer optimality gap tolerance: 0.01
CPLEX> New value for integrality tolerance: 1e-09
CPLEX> New value for feasibility tolerance: 0.1
CPLEX> New value for deterministic time limit in ticks: 100000
CPLEX> Problem 'C:\Users\llavin\Desktop\test919\logs\tmprmhl_vhj.pyomo.lp' read.
Read time = 0.22 sec. (13.88 ticks)
CPLEX> MIP start file 'C:\Users\llavin\Desktop\test919\logs\tmp_b5dn9sl.cplex.mst' read.
CPLEX> Problem name         : C:\Users\llavin\Desktop\test919\logs\tmprmhl_vhj.pyomo.lp
Objective sense      : Maximize
Variables            :   54041  [Nneg: 1,  Box: 22526,  Free: 4416,
                                 Binary: 27098]
Objective nonzeros   :    9725
Linear constraints   :  122164  [Less: 40983,  Greater: 58612,  Equal: 22569]
  Nonzeros           :  288457
  RHS nonzeros       :   66982

Variables            : Min LB: -5000.000        Max UB: 1000000.       
Objective nonzeros   : Min   : 0.2250000        Max   : 90000.00       
Linear constraints   :
  Nonzeros           : Min   : 0.2250000        Max   : 2910000.       
  RHS nonzeros       : Min   : 0.2250000        Max   : 3000000.       
CPLEX> CPXPARAM_Parallel                                -1
CPXPARAM_Simplex_Tolerances_Feasibility          0.10000000000000001
CPXPARAM_DetTimeLimit                            100000
CPXPARAM_MIP_Tolerances_MIPGap                   0.01
CPXPARAM_MIP_Tolerances_Integrality              1.0000000000000001e-09
Warning:  No solution found from 1 MIP starts.
Retaining values of one MIP start for possible repair.
Tried aggregator 3 times.
MIP Presolve eliminated 88102 rows and 19702 columns.
MIP Presolve added 3349 rows and 0 columns.
MIP Presolve modified 23618 coefficients.
Aggregator did 12842 substitutions.
Reduced MIP has 24569 rows, 20941 columns, and 68800 nonzeros.
Reduced MIP has 8293 binaries, 0 generals, 0 SOSs, and 0 indicators.
Presolve time = 0.28 sec. (173.31 ticks)
Probing fixed 431 vars, tightened 2912 bounds.
Probing time = 1.25 sec. (903.52 ticks)
Tried aggregator 2 times.
MIP Presolve eliminated 965 rows and 870 columns.
MIP Presolve modified 2211 coefficients.
Aggregator did 58 substitutions.
Reduced MIP has 23546 rows, 20013 columns, and 65811 nonzeros.
Reduced MIP has 7859 binaries, 0 generals, 0 SOSs, and 0 indicators.
Presolve time = 0.11 sec. (66.15 ticks)
Probing fixed 4 vars, tightened 10 bounds.
Probing time = 0.19 sec. (113.49 ticks)
Clique table members: 8268.
MIP emphasis: balance optimality and feasibility.
MIP search method: dynamic search.
Parallel mode: opportunistic, using up to 32 threads.
Root relaxation solution time = 0.30 sec. (214.00 ticks)

        Nodes                                         Cuts/
   Node  Left     Objective  IInf  Best Integer    Best Bound    ItCnt     Gap

      0     0   131016.1214  1590                 131016.1214     3271         
      0     0   126221.3569   704                   Cuts: 905     3608         
      0     0   125606.3071   627                   Cuts: 571     3741         
      0     0   125486.2383   576                   Cuts: 460     3861         
      0     0   125483.5157   567                   Cuts: 451     3897         
      0     0   125483.5157   550                   Cuts: 316     3921         
      0     0   125483.5157   541                   Cuts: 311     3935         
      0     0   125034.9543   531                   Cuts: 294     3962         
      0     0   125034.9543   528                   Cuts: 280     3974         
      0     0   125034.7232   528                   Cuts: 268     3985         
Repair heuristic found nothing.
      0     2   125034.7232   528                    Cuts: 49     3985         
Elapsed time = 11.69 sec. (6580.40 ticks, tree = 0.02 MB, solutions = 0)
    437    93   118452.5343   451                 122924.7188     5616         
    916   604    infeasible                       122924.7188    10559         
   1530   897   121534.4774   431                 122924.7188    16300         
   2307  1191   103731.1221   409                 122924.7188    21796         
   3083  1467   101148.4826   410                 122924.7188    25975         
   3916  2164   102416.5813   396                 122924.7188    32012         
   4892  3072    97969.1217   410                 122924.7188    36931         
   5894  4293   108642.0048   426                 122924.7188    39988         
   7031  4587    99328.2078   396                 122924.7188    40202         
  11541 10620    99328.2078   303                 122924.7188    45950         
Elapsed time = 29.28 sec. (9683.85 ticks, tree = 92.50 MB, solutions = 0)
* 13784+ 6869                        96128.8025   122924.7188            27.88%
* 13963  9017      integral     0   110623.1006   122924.7188    44724   11.12%
* 14892 11446      integral     0   114471.0606   122892.5359    46396    7.36%
* 15653 11130      integral     0   120579.1848   122892.5359    46420    1.92%
  16517   599        cutoff         120579.1848   122257.6324    61131    1.39%

GUB cover cuts applied:  1
Clique cuts applied:  5
Cover cuts applied:  24
Implied bound cuts applied:  26
Flow cuts applied:  442
Mixed integer rounding cuts applied:  67
Zero-half cuts applied:  1
Gomory fractional cuts applied:  125

Root node processing (before b&c):
  Real time             =    9.88 sec. (6541.93 ticks)
Parallel b&c, 32 threads:
  Real time             =   58.67 sec. (25995.00 ticks)
  Sync time (average)   =    1.47 sec.
  Wait time (average)   =    0.59 sec.
                          ------------
Total (root+branch&cut) =   68.55 sec. (32536.93 ticks)

Solution pool: 9 solutions saved.

MIP - Integer optimal solution:  Objective =  1.2057918480e+05
Solution time =   68.55 sec.  Iterations = 61163  Nodes = 16520
Deterministic time = 32537.08 ticks  (474.67 ticks/sec)

CPLEX> Incumbent solution written to file 'C:\Users\llavin\Desktop\test919\logs\tmpo4wn2wcb.cplex.sol'.
CPLEX> Exporting results... 
